133
1000
134
273
172
195
225
311
343
172
23
104
196
159
385
61
25
319
368
150
206
13
474
55
187
288
365
24
289
23
15
385
362
120
118
51
122
117
75
256
231
330
400
406
403
442
318
42
411
433
261
320
261
112
18
1
32
163
319
38
408
116
134
175
222
373
17
38
67
208
154
193
276
393
163
391
459
32
136
246
212
444
215
397
253
15
303
476
145
61
302
3
86
346
337
495
448
275
61
250
365
334
458
20
365
30
348
104
270
88
279
177
87
182
439
176
29
350
428
174
62
275
231
170
482
327
181
269
291
184
207
276
278
155
483
